100
128
31
15
1
42
21
21
29
36
12
12
16
18
32
48
21
31
32
46
27
19
62
3
21
42
12
45
8
8
14
18
4
2
51
37
12
26
12
19
56
32
38
28
10
22
28
21
59
32
63
25
51
32
45
40
36
36
3
48
40
48
48
32
25
60
19
55
47
24
24
24
19
42
20
22
34
55
38
22
56
24
61
38
29
31
28
21
64
64
47
25
63
64
54
32
42
25
46
57
63
64